==> CUTFACTOR            = 0.5
==> MAXTIME              = 3600
==> OUTPUTLOG            = 1
FICO Xpress v8.5.9, solve started 23:35:48, Jun 8, 2019
Maximizing MILP Seating model
Original problem has:
       230 rows          300 cols         7440 elements       300 globals
Presolved problem has:
       103 rows          204 cols         2431 elements       198 globals
LP relaxation tightened
Will try to keep branch and bound tree memory usage below 7.2GB
 *** Heuristic solution found:    22.000000      Time: 0 ***
Starting concurrent solve with dual

 Concurrent-Solve,   0s
            Dual        
    objective   dual inf
 D  102.00000   .0000000
------- optimal --------
Concurrent statistics:
      Dual: 34 simplex iterations, 0.00s
Optimal solution found
 
   Its         Obj Value      S   Ninf  Nneg   Sum Dual Inf  Time
    34        102.000000      D      0     0        .000000     0
Dual solved problem
  34 simplex iterations in 0s

Final objective                         : 1.020000000000000e+02
  Max primal violation      (abs / rel) : 1.110e-16 / 9.869e-17
  Max dual violation        (abs / rel) :       0.0 /       0.0
  Max complementarity viol. (abs / rel) :       0.0 /       0.0
All values within tolerances

Starting root cutting & heuristics
 
 Its Type    BestSoln    BestBound   Sols    Add    Del     Gap     GInf   Time
   1  K     22.000000   102.000000      1     23      0   78.43%      29      0
   2  K     22.000000   102.000000      1     25     14   78.43%      37      0
   3  K     22.000000   102.000000      1     20     26   78.43%      36      0
   4  K     22.000000   102.000000      1     19     20   78.43%      35      0
   5  K     22.000000   102.000000      1     23     12   78.43%      41      0
   6  K     22.000000   102.000000      1     34     22   78.43%      42      0
   7  K     22.000000   102.000000      1     19     35   78.43%      39      0
   8  K     22.000000   102.000000      1     20     25   78.43%      36      0
   9  K     22.000000   102.000000      1     16     18   78.43%      33      0
  10  K     22.000000   102.000000      1     22     13   78.43%      42      0
  11  K     22.000000   102.000000      1     30     19   78.43%      46      0
b           23.000000   102.000000      2                 77.45%       0      0
  12  K     23.000000   102.000000      2     22     31   77.45%      40      0
  13  K     23.000000   102.000000      2     29     19   77.45%      44      0
  14  K     23.000000   102.000000      2     28     26   77.45%      46      0
  15  K     23.000000   102.000000      2     24     24   77.45%      39      0
  16  K     23.000000   102.000000      2     24     24   77.45%      41      0
  17  K     23.000000   102.000000      2     25     35   77.45%      33      0
  18  K     23.000000   102.000000      2     25     19   77.45%      41      0
  19  K     23.000000   102.000000      2     24     20   77.45%      43      0
  20  K     23.000000   102.000000      2     18     50   77.45%      51      0
  21  G     23.000000   102.000000      2     14      0   77.45%      34      0
  22  G     23.000000   102.000000      2      7     28   77.45%      41      0
Heuristic search started
Heuristic search stopped
M           25.000000   102.000000      3                 75.49%       0      0
M           28.000000   102.000000      4                 72.55%       0      0
M           30.000000   102.000000      5                 70.59%       0      0
M           32.000000   102.000000      6                 68.63%       0      0
M           39.000000   102.000000      7                 61.76%       0      0
 
Cuts in the matrix         : 11
Cut elements in the matrix : 378
 
Starting tree search.
Deterministic mode with up to 4 running threads and up to 8 tasks.
 
    Node     BestSoln    BestBound   Sols Active  Depth     Gap     GInf   Time
       1    39.000000   102.000000      7      2      1   61.76%      27      1
       2    39.000000   102.000000      7      2      2   61.76%      34      1
       3    39.000000   102.000000      7      2      3   61.76%      32      1
       4    39.000000   102.000000      7      2      2   61.76%      35      1
       5    39.000000   102.000000      7      2      4   61.76%      34      1
       6    39.000000   102.000000      7      5      5   61.76%      32      1
       7    39.000000   102.000000      7      5      3   61.76%      33      1
       8    39.000000   102.000000      7      5      6   61.76%      27      1
       9    39.000000   102.000000      7      5      7   61.76%      37      1
      10    39.000000   102.000000      7      8      4   61.76%      32      1
      23    39.000000   102.000000      7     17     16   61.76%      35      1
      38    39.000000   102.000000      7     17     27   61.76%      27      1
      54    39.000000   102.000000      7     17     36   61.76%      27      1
      72    39.000000   102.000000      7     17     46   61.76%      30      1
      85    39.000000   102.000000      7     17     32   61.76%      26      1
     108    39.000000   102.000000      7     17     64   61.76%      19      1
g    132    41.000000   102.000000      8     75     20   59.80%       0      1
     217    41.000000   102.000000      8     75     48   59.80%      18      1
g    224    44.000000   102.000000      9     75     36   56.86%       0      1
B&B tree size: 0.5MB total
 
    Node     BestSoln    BestBound   Sols Active  Depth     Gap     GInf   Time
g    241    48.000000   102.000000     10     75     52   52.94%       0      1
     332    48.000000   102.000000     10    147     58   52.94%      15      1
g    367    50.000000   102.000000     11    147     29   50.98%       0      1
     456    50.000000   102.000000     11    147     46   50.98%      18      1
     561    50.000000   102.000000     11    147     94   50.98%      20      1
     681    50.000000   102.000000     11    147    113   50.98%      24      1
     789    50.000000   102.000000     11    147     71   50.98%       8      1
     894    50.000000   102.000000     11    147     45   50.98%      30      1
    1014    50.000000   102.000000     11    147     67   50.98%      15      1
    1132    50.000000   102.000000     11    147     50   50.98%      15      1
    1242    50.000000   102.000000     11    147     66   50.98%      12      1
    1356    50.000000   102.000000     11    147     32   50.98%      28      1
    1471    50.000000   102.000000     11    147     49   50.98%      17      1
    1575    50.000000   102.000000     11    147     51   50.98%      20      1
    1684    50.000000   102.000000     11    147     35   50.98%      12      1
    1806    50.000000   102.000000     11    147     51   50.98%      13      1
    1909    50.000000   102.000000     11    405      1   50.98%       1      1
    2025    50.000000   102.000000     11    590     72   50.98%      28      1
    2146    50.000000   102.000000     11    896     32   50.98%      18      1
    2272    50.000000   102.000000     11    896     98   50.98%      42      1
B&B tree size: 4.4MB total
 
    Node     BestSoln    BestBound   Sols Active  Depth     Gap     GInf   Time
    2372    50.000000   102.000000     11    896     46   50.98%      26      1
    2472    50.000000   102.000000     11    896    114   50.98%      19      2
    2592    50.000000   102.000000     11   1225     71   50.98%      30      2
    2693    50.000000   102.000000     11   1225     69   50.98%      13      2
    2817    50.000000   102.000000     11   1225     88   50.98%      18      2
    2942    50.000000   102.000000     11   1225     46   50.98%      12      2
g   2962    55.000000   102.000000     12   1225     62   46.08%       0      2
g   2965    60.000000   102.000000     13   1225     65   41.18%       0      2
    3047    60.000000   102.000000     13   1225     88   41.18%      33      2
    3156    60.000000   102.000000     13   1225     97   41.18%      19      2
    3262    60.000000   102.000000     13   1225     32   41.18%      10      2
    3628    60.000000   102.000000     13   1237      1   41.18%       1      2
    3728    60.000000   102.000000     13   1237    113   41.18%      15      2
    3846    60.000000   102.000000     13   1237     29   41.18%      27      2
    3975    60.000000   102.000000     13   1237     29   41.18%      12      2
    4098    60.000000   102.000000     13   1237     43   41.18%      14      2
    4235    60.000000   102.000000     13   1237     30   41.18%      31      2
    4343    60.000000   102.000000     13   1237     84   41.18%      19      2
    4468    60.000000   102.000000     13   1237     31   41.18%      35      2
    4579    60.000000   102.000000     13   1237     40   41.18%      13      2
B&B tree size: 6.4MB total
 
    Node     BestSoln    BestBound   Sols Active  Depth     Gap     GInf   Time
    4687    60.000000   102.000000     13   1237     47   41.18%      10      2
    4804    60.000000   102.000000     13   1237     45   41.18%      25      2
    4908    60.000000   102.000000     13   1237     51   41.18%      16      2
    5032    60.000000   102.000000     13   1237     59   41.18%      31      2
    5140    60.000000   102.000000     13   1237     39   41.18%      23      2
    5246    60.000000   102.000000     13   1237     81   41.18%      24      2
    5371    60.000000   102.000000     13   1237     40   41.18%      12      2
    5482    60.000000   102.000000     13   1237     96   41.18%      27      2
    5600    60.000000   102.000000     13   1237     59   41.18%      30      2
    5700    60.000000   102.000000     13   1237     77   41.18%      22      2
    5830    60.000000   102.000000     13   1237     78   41.18%      17      2
    5930    60.000000   102.000000     13   1462     88   41.18%      36      2
    6052    60.000000   102.000000     13   1462     32   41.18%      27      2
    6152    60.000000   102.000000     13   1462     92   41.18%      28      2
    6252    60.000000   102.000000     13   1462    104   41.18%      18      3
    6368    60.000000   102.000000     13   1725     23   41.18%      29      3
    6477    60.000000   102.000000     13   1725     94   41.18%      38      3
    6588    60.000000   102.000000     13   1725    111   41.18%      21      3
    6708    60.000000   102.000000     13   2269      1   41.18%       1      3
    6808    60.000000   102.000000     13   2269     47   41.18%      34      3
B&B tree size: 9.2MB total
 
    Node     BestSoln    BestBound   Sols Active  Depth     Gap     GInf   Time
    6923    60.000000   102.000000     13   2477    115   41.18%      18      3
    7038    60.000000   102.000000     13   2477     55   41.18%      30      3
    7143    60.000000   102.000000     13   2477     46   41.18%      18      3
    7270    60.000000   102.000000     13   2477     74   41.18%      35      3
    7378    60.000000   102.000000     13   2778      1   41.18%       1      3
    7490    60.000000   102.000000     13   2778     83   41.18%      29      3
    7612    60.000000   102.000000     13   2778     26   41.18%      33      3
    7727    60.000000   102.000000     13   2778     64   41.18%      27      3
    7854    60.000000   102.000000     13   3152     38   41.18%      21      3
    7954    60.000000   102.000000     13   3152     70   41.18%      31      3
    8074    60.000000   102.000000     13   3152     51   41.18%      19      3
    8175    60.000000   102.000000     13   3152    114   41.18%      35      3
    8303    60.000000   102.000000     13   3152     29   41.18%      31      3
    8426    60.000000   102.000000     13   3152    112   41.18%      31      3
    8539    60.000000   102.000000     13   3152     74   41.18%      20      3
    8640    60.000000   102.000000     13   3152     76   41.18%      24      3
    8746    60.000000   102.000000     13   3152     59   41.18%      17      3
    8862    60.000000   102.000000     13   3529      1   41.18%       1      3
    8965    60.000000   102.000000     13   3529     29   41.18%      27      3
    9102    60.000000   102.000000     13   3529     92   41.18%      21      3
B&B tree size: 12MB total
 
    Node     BestSoln    BestBound   Sols Active  Depth     Gap     GInf   Time
    9207    60.000000   102.000000     13   3529     64   41.18%      25      3
    9333    60.000000   102.000000     13   3529     69   41.18%      21      3
    9453    60.000000   102.000000     13   3529     36   41.18%      29      3
    9553    60.000000   102.000000     13   3529     99   41.18%      14      3
    9656    60.000000   102.000000     13   3718      1   41.18%       1      3
    9780    60.000000   102.000000     13   3718     88   41.18%      10      4
    9880    60.000000   102.000000     13   3884     96   41.18%      40      4
    9988    60.000000   102.000000     13   3884    102   41.18%      20      4
   10110    60.000000   102.000000     13   3884     84   41.18%      24      4
   11128    60.000000   102.000000     13   4400     87   41.18%       6      4
   12144    60.000000   101.000000     13   5349     81   40.59%      16      4
   13181    60.000000   101.000000     13   5544     85   40.59%      13      4
   14194    60.000000    95.446374     13   6092     83   37.14%      26      4
   15212    60.000000    94.847953     13   6562     39   36.74%      23      5
   16221    60.000000    92.222222     13   6807     52   34.94%      22      5
   17232    60.000000    91.704568     13   7248     20   34.57%      15      5
   18240    60.000000    91.704568     13   7376     95   34.57%      14      5
   19244    60.000000    88.903891     13   8068    100   32.51%      32      6
   20248    60.000000    88.701863     13   8159     74   32.36%      29      6
   21281    60.000000    88.701863     13   8464     52   32.36%      25      6
B&B tree size: 24MB total
 
    Node     BestSoln    BestBound   Sols Active  Depth     Gap     GInf   Time
   22303    60.000000    88.000000     13   9261      1   31.82%       1      6
   23306    60.000000    88.000000     13   9477      1   31.82%       1      7
   24318    60.000000    88.000000     13   9942     61   31.82%      12      7
   25323    60.000000    88.000000     13  10179     45   31.82%      20      7
   26335    60.000000    88.000000     13  10281     90   31.82%      19      8
   27337    60.000000    88.000000     13  10987     75   31.82%      28      8
   28337    60.000000    88.000000     13  11229     98   31.82%      20      8
   29345    60.000000    88.000000     13  11429     73   31.82%      22      8
   30350    60.000000    88.000000     13  11964     67   31.82%      18      9
   31376    60.000000    88.000000     13  12091     46   31.82%      16      9
   32405    60.000000    87.736842     13  12537     77   31.61%      21      9
   33412    60.000000    87.736842     13  12754     54   31.61%      19      9
   34421    60.000000    87.000000     13  13296      1   31.03%       1     10
   35422    60.000000    87.000000     13  13537     63   31.03%      14     10
   36447    60.000000    86.400585     13  13823     47   30.56%      18     10
   37454    60.000000    85.893684     13  14051     89   30.15%      16     10
   38467    60.000000    85.611111     13  14182     71   29.92%      12     11
   39486    60.000000    85.269439     13  14462     51   29.63%       9     11
   40487    60.000000    85.000000     13  14954     62   29.41%      17     11
   41488    60.000000    85.000000     13  15048     31   29.41%      21     11
B&B tree size: 41MB total
 
    Node     BestSoln    BestBound   Sols Active  Depth     Gap     GInf   Time
   42498    60.000000    85.000000     13  15392     81   29.41%      32     12
   43511    60.000000    85.000000     13  15622     76   29.41%      13     12
   44518    60.000000    85.000000     13  15793     53   29.41%      25     12
   45521    60.000000    85.000000     13  16175     48   29.41%      18     12
   46537    60.000000    85.000000     13  16335     81   29.41%      17     13
   47538    60.000000    85.000000     13  16555     16   29.41%      24     13
   48557    60.000000    85.000000     13  16743     34   29.41%      18     13
   49574    60.000000    84.000000     13  17069     68   28.57%      15     13
   50580    60.000000    84.000000     13  17234     70   28.57%      21     14
   51584    60.000000    84.000000     13  17400     32   28.57%      23     14
   52587    60.000000    84.000000     13  17674     28   28.57%      15     14
   53590    60.000000    83.473684     13  17929     90   28.12%      25     14
   54614    60.000000    83.000000     13  18064     79   27.71%       7     14
   55619    60.000000    83.000000     13  18172     49   27.71%      16     15
   56621    60.000000    83.000000     13  18536     74   27.71%      19     15
   57628    60.000000    83.000000     13  18766     50   27.71%      17     15
   58646    60.000000    82.687928     13  19008     83   27.44%      21     15
   59661    60.000000    82.687928     13  19049     99   27.44%      30     16
   60667    60.000000    82.361111     13  19292     59   27.15%      24     16
   61678    60.000000    82.233333     13  19426     88   27.04%      29     16
B&B tree size: 53MB total
 
    Node     BestSoln    BestBound   Sols Active  Depth     Gap     GInf   Time
   62702    60.000000    82.000000     13  19794     51   26.83%      36     16
   63702    60.000000    82.000000     13  19997     63   26.83%      25     17
   64712    60.000000    82.000000     13  20155      1   26.83%       1     17
   65737    60.000000    82.000000     13  20385     59   26.83%      21     17
   66762    60.000000    82.000000     13  20513     59   26.83%      16     17
   67772    60.000000    82.000000     13  20711     48   26.83%      21     18
   68772    60.000000    82.000000     13  20935     73   26.83%      20     18
   69800    60.000000    82.000000     13  21181     64   26.83%      15     18
   70805    60.000000    82.000000     13  21347     52   26.83%      19     19
   71810    60.000000    82.000000     13  21717     33   26.83%      34     19
   72819    60.000000    82.000000     13  21894     52   26.83%      15     19
   73823    60.000000    82.000000     13  22185     84   26.83%      16     19
   74831    60.000000    82.000000     13  22455     57   26.83%      15     19
   75848    60.000000    82.000000     13  22569     53   26.83%      21     20
   76856    60.000000    82.000000     13  22736     84   26.83%      27     20
   77867    60.000000    82.000000     13  22862     80   26.83%      13     20
   78883    60.000000    82.000000     13  23008     46   26.83%      28     20
   79911    60.000000    82.000000     13  23166     79   26.83%      11     21
   80912    60.000000    81.785741     13  23418     13   26.64%      29     21
   81915    60.000000    81.522584     13  23597     20   26.40%      23     21
B&B tree size: 64MB total
 
    Node     BestSoln    BestBound   Sols Active  Depth     Gap     GInf   Time
   82928    60.000000    81.222222     13  23838     56   26.13%      28     21
   83944    60.000000    81.186344     13  23857     48   26.10%      23     22
   84976    60.000000    81.000000     13  24226     56   25.93%      24     22
   85996    60.000000    81.000000     13  24483     73   25.93%      26     22
   87005    60.000000    81.000000     13  24615     90   25.93%      11     22
   88032    60.000000    81.000000     13  24803     62   25.93%      17     23
   89034    60.000000    81.000000     13  24978     47   25.93%      19     23
   90061    60.000000    81.000000     13  25234     57   25.93%      28     23
   91061    60.000000    81.000000     13  25306     83   25.93%      13     23
   92062    60.000000    81.000000     13  25366     60   25.93%      21     24
   93076    60.000000    81.000000     13  25518     61   25.93%      27     24
   94097    60.000000    80.649123     13  25679     69   25.60%      16     24
   95103    60.000000    80.495873     13  25816     77   25.46%      27     24
   96112    60.000000    80.333333     13  25895     22   25.31%      25     25
   97121    60.000000    80.175439     13  26000     84   25.16%      15     25
   98123    60.000000    80.000000     13  26113     81   25.00%      22     25
   99123    60.000000    80.000000     13  26172     20   25.00%      26     25
  100143    60.000000    80.000000     13  26218     69   25.00%      21     25
  110143    60.000000    78.981481     13  27017     63   24.03%      15     28
  120144    60.000000    78.000000     13  27904     39   23.08%      20     30
B&B tree size: 79MB total
 
    Node     BestSoln    BestBound   Sols Active  Depth     Gap     GInf   Time
  130149    60.000000    77.000000     13  28327     69   22.08%      33     32
  140149    60.000000    76.806543     13  28705     28   21.88%      15     34
  150166    60.000000    76.000000     13  28753     31   21.05%      14     37
  160169    60.000000    75.000000     13  28791     56   20.00%      21     39
  170186    60.000000    74.085714     13  28616    105   19.01%      35     41
  180187    60.000000    73.226471     13  28067     61   18.06%      18     43
  190190    60.000000    73.000000     13  27323     95   17.81%      22     45
  200191    60.000000    72.000000     13  26371     48   16.67%      27     47
  210208    60.000000    71.313596     13  25207     72   15.86%      28     49
User interrupt (9) triggered.
 *** Search unfinished ***    Time:    52 Nodes:     218246
Number of integer feasible solutions found is 13
Best integer solution found is    60.000000
Best bound is    70.827657
